r = [
0,16,14,6,17,3,4,2,17,11,14,0
];
p = [
0,24,17,16,29,7,6,17,15,14,30,0
];
e = [
0,8,2,8,16,13,13,3,7,2,8,0
];
d = [
0,136,162,202,211,169,141,181,204,154,157,226
];
d_bar = [
0,148,171,210,226,173,144,190,212,161,172,226
];
w = [
0,0.666666667,0.222222222,1,1.066666667,3.25,4.333333333,0.333333333,0.875,0.285714286,0.533333333,0
];
